N = 6;
H = 5;
T = 2;

avail = array3d(1..N, 1..H, 1..T, [6, 0, 0, 8, 8, 7, 3, 8, 1, 7, 2, 4, 3, 7, 2, 3, 0, 8, 6, 6, 10, 9, 10, 7, 6, 10, 8, 7, 4, 5, 1, 6, 0, 10, 6, 2, 7, 8, 5, 6, 0, 1, 4, 8, 7, 5, 5, 0, 2, 3, 1, 1, 0, 0, 0, 5, 0, 4, 5, 4]);

r = array2d(1..H, 1..T, [0, 1, 1, 1, 0, 1, 3, 3, 1, 0]);
